SCIP Status        : solving was interrupted [time limit reached]
Total Time         :    3600.01
  solving          :    3600.00
  presolving       :       0.45 (included in solving)
  reading          :       0.01
  copying          :       1.30 (39 #copies) (minimal 0.00, maximal 0.09, average 0.03)
Original Problem   :
  Problem name     : bbbenchmark/g05_100.3.cut
  Variables        : 101 (100 binary, 0 integer, 0 implicit integer, 1 continuous)
  Constraints      : 1 initial, 1 maximal
  Objective        : minimize, 1 non-zeros (abs.min = 1, abs.max = 1)
Presolved Problem  :
  Problem name     : t_bbbenchmark/g05_100.3.cut
  Variables        : 1898 (100 binary, 0 integer, 1784 implicit integer, 14 continuous)
  Constraints      : 1824 initial, 8084 maximal
  Objective        : minimize, 1 non-zeros (abs.min = 1, abs.max = 1)
  Nonzeros         : 8697 constraint, 202 clique table
Presolvers         :   ExecTime  SetupTime  Calls  FixedVars   AggrVars   ChgTypes  ChgBounds   AddHoles    DelCons    AddCons   ChgSides   ChgCoefs
  boundshift       :       0.00       0.00      0          0          0          0          0          0          0          0          0          0
  convertinttobin  :       0.00       0.00      0          0          0          0          0          0          0          0          0          0
  domcol           :       0.00       0.00      1          0          0          0          0          0          0          0          0          0
  dualagg          :       0.00       0.00      0          0          0          0          0          0          0          0          0          0
  dualcomp         :       0.00       0.00      1          0          0          0          0          0          0          0          0          0
  dualinfer        :       0.00       0.00      0          0          0          0          0          0          0          0          0          0
  dualsparsify     :       0.00       0.00      1          0          0          0          0          0          0          0          0          0
  gateextraction   :       0.00       0.00      0          0          0          0          0          0          0          0          0          0
  implics          :       0.00       0.00      2          0          0          0          0          0          0          0          0          0
  inttobinary      :       0.00       0.00      0          0          0          0          0          0          0          0          0          0
  qpkktref         :       0.00       0.00      0          0          0          0          0          0          0          0          0          0
  redvub           :       0.00       0.00      0          0          0          0          0          0          0          0          0          0
  sparsify         :       0.00       0.00      1          0          0          0          0          0          0          0          0          0
  stuffing         :       0.00       0.00      0          0          0          0          0          0          0          0          0          0
  trivial          :       0.00       0.00      4          0          0          0          0          0          0          0          0          0
  tworowbnd        :       0.00       0.00      0          0          0          0          0          0          0          0          0          0
  dualfix          :       0.00       0.00      4          0          0          0          0          0          0          0          0          0
  genvbounds       :       0.00       0.00      0          0          0          0          0          0          0          0          0          0
  probing          :       0.35       0.00      1          0          0          0          0          0          0          0          0          0
  pseudoobj        :       0.00       0.00      1          0          0          0          1          0          0          0          0          0
  symmetry         :       0.00       0.00      0          0          0          0          0          0          0          0          0          0
  vbounds          :       0.00       0.00      1          0          0          0          0          0          0          0          0          0
  varbound         :       0.00       0.00      2          0          0          0          0          0          0          0          0          0
  and              :       0.01       0.00      2          0          0          0          0          0          0          0          0          0
  linear           :       0.00       0.00      2          0          0          0          0          0          0          0          0          0
  logicor          :       0.00       0.00      0          0          0          0          0          0          0          0          0          0
  bounddisjunction :       0.00       0.00      0          0          0          0          0          0          0          0          0          0
  nonlinear        :       0.09       0.00      5          0          0          0          1          0          0       1823          0          0
  benders          :       0.00       0.00      0          0          0          0          0          0          0          0          0          0
  components       :       0.00       0.00      1          0          0          0          0          0          0          0          0          0
  root node        :          -          -      -          0          -          -         14          -          -          -          -          -
Constraints        :     Number  MaxNumber  #Separate #Propagate    #EnfoLP    #EnfoRelax  #EnfoPS    #Check   #ResProp    Cutoffs    DomReds       Cuts    Applied      Conss   Children
  benderslp        :          0          0          0          0      92182          0          0      15208          0          0          0          0          0          0          0
  integral         :          0          0          0          0      92182          0          0      15208          0          0        915          0          0        768     183188
  varbound         :         13         13         51     511545          0          0          0        106          0          0      38500          0          0          0          0
  and              :       1784       1784     108181     703143          1          0          0        106     562104          2     996338       1221       1208          0          0
  linear           :         27+        39         51     703187          1          0          0        104       1046         15     251079          0          0          0          0
  logicor          :          0+      5865          0     133705          0          0          0          0        203        621         48          0          0          0          0
  bounddisjunction :          0+       458          0      52829          0          0          0          0          1         50          1          0          0          0          0
  benders          :          0          0          0          0          1          0          0        107          0          0          0          0          0          0          0
  countsols        :          0          0          0          0          1          0          0        107          0          0          0          0          0          0          0
  components       :          0          0          0          0          0          0          0          0          0          0          0          0          0          0          0
Constraint Timings :  TotalTime  SetupTime   Separate  Propagate     EnfoLP     EnfoPS     EnfoRelax   Check    ResProp    SB-Prop
  benderslp        :       0.18       0.00       0.00       0.00       0.15       0.00       0.00       0.03       0.00       0.00
  integral         :      62.33       0.00       0.00       0.00      62.30       0.00       0.00       0.03       0.00       0.00
  varbound         :       0.61       0.00       0.00       0.61       0.00       0.00       0.00       0.00       0.00       0.00
  and              :     140.65       0.00      97.75      41.83       0.00       0.00       0.00       0.05       0.40       0.62
  linear           :       4.68       0.00       0.06       4.56       0.00       0.00       0.00       0.00       0.00       0.06
  logicor          :      14.19       0.00       0.00      14.16       0.00       0.00       0.00       0.00       0.00       0.03
  bounddisjunction :       1.27       0.00       0.00       1.27       0.00       0.00       0.00       0.00       0.00       0.00
  benders          :       0.00       0.00       0.00       0.00       0.00       0.00       0.00       0.00       0.00       0.00
  countsols        :       0.00       0.00       0.00       0.00       0.00       0.00       0.00       0.00       0.00       0.00
  components       :       0.28       0.00       0.00       0.28       0.00       0.00       0.00       0.00       0.00       0.00
Propagators        : #Propagate   #ResProp    Cutoffs    DomReds
  dualfix          :          4          0          0          0
  genvbounds       :          0          0          0          0
  nlobbt           :          0          0          0          0
  obbt             :          0          0          0          0
  probing          :          0          0          0          0
  pseudoobj        :     351721          0          0         42
  redcost          :     209396          0          0      59615
  rootredcost      :         13          0          0          0
  symmetry         :          0          0          0          0
  vbounds          :      95718          0          0          0
Propagator Timings :  TotalTime  SetupTime   Presolve  Propagate    ResProp    SB-Prop
  dualfix          :       0.00       0.00       0.00       0.00       0.00       0.00
  genvbounds       :       0.34       0.00       0.00       0.34       0.00       0.00
  nlobbt           :       0.00       0.00       0.00       0.00       0.00       0.00
  obbt             :       0.00       0.00       0.00       0.00       0.00       0.00
  probing          :       0.35       0.00       0.35       0.00       0.00       0.00
  pseudoobj        :       0.87       0.00       0.00       0.87       0.00       0.00
  redcost          :      17.33       0.00       0.00      17.33       0.00       0.00
  rootredcost      :       0.72       0.00       0.00       0.72       0.00       0.00
  symmetry         :       0.38       0.00       0.00       0.37       0.00       0.01
  vbounds          :       0.64       0.00       0.00       0.62       0.00       0.02
Conflict Analysis  :       Time      Calls    Success    DomReds  Conflicts   Literals    Reconvs ReconvLits   Dualrays   Nonzeros   LP Iters   (pool size: [10000,10000])
  propagation      :       0.00        673        501          -        577       62.7          0        0.0          -          -          -
  infeasible LP    :       0.12         51         51          -       2165      151.4          0        0.0         63      210.6          0
  bound exceed. LP :      25.75       8866       7549          -     164432      105.6          1       57.0          0        0.0      52790
  strong branching :       0.00          0          0          -          0        0.0          0        0.0          -          -          0
  pseudo solution  :       0.00          0          0          -          0        0.0          0        0.0          -          -          -
  applied globally :       0.67          -          -          0      38214      109.7          -          -         63          -          -
  applied locally  :          -          -          -          0          0        0.0          -          -          0          -          -
Separators         :   ExecTime  SetupTime      Calls  RootCalls    Cutoffs    DomReds  FoundCuts ViaPoolAdd  DirectAdd    Applied ViaPoolApp  DirectApp      Conss
  cut pool         :       9.27          -      30251         71          -          -      33107    2318602          -          -          -          -          -    (maximal pool size:       2853)
  aggregation      :      10.62       0.00       4612         51          0          0         90        521          0         23         23          0          0
  > cmir           :          -          -          -          -          -          -          -        521          0         23         23          0          -
  > flowcover      :          -          -          -          -          -          -          -          0          0          0          0          0          -
  > knapsackcover  :          -          -          -          -          -          -          -          0          0          0          0          0          -
  cgmip            :       0.00       0.00          0          0          0          0          0          0          0          0          0          0          0
  clique           :       0.00       0.00         51         51          0          0          0          0          0          0          0          0          0
  closecuts        :       0.00       0.00          0          0          0          0          0          0          0          0          0          0          0
  convexproj       :       0.00       0.00          0          0          0          0          0          0          0          0          0          0          0
  disjunctive      :       0.00       0.00          0          0          0          0          0          0          0          0          0          0          0
  eccuts           :       0.00       0.00          0          0          0          0          0          0          0          0          0          0          0
  gauge            :       0.00       0.00          0          0          0          0          0          0          0          0          0          0          0
  gomory           :       0.00       0.00          0          0          0          0          0          0          0          0          0          0          0
  > gomorymi       :          -          -          -          -          -          -          -          0          0          0          0          0          -
  > strongcg       :          -          -          -          -          -          -          -          0          0          0          0          0          -
  impliedbounds    :       0.48       0.00       4612         51          0          0          2          0          0          0          0          0          0
  interlattice     :       0.26       0.00         30         30          0          0         30          0         30         29          0         29          0
  interminor       :       0.00       0.00          0          0          0          0          0          0          0          0          0          0          0
  intersub         :       0.00       0.00          0          0          0          0          0          0          0          0          0          0          0
  intobj           :       0.00       0.00          0          0          0          0          0          0          0          0          0          0          0
  mcf              :       0.00       0.00          1          1          0          0          0          0          0          0          0          0          0
  minor            :       0.01       0.00          0          0          0          0          0          0          0          0          0          0          0
  mixing           :       0.03       0.00       4612         51          0          0          0          0          0          0          0          0          0
  oddcycle         :       0.00       0.00          0          0          0          0          0          0          0          0          0          0          0
  rapidlearning    :       0.06       0.00          0          0          0          0          0          0          0          0          0          0          0
  rlt              :       0.00       0.00         10         10          0          0          0          0          0          0          0          0          0
  zerohalf         :      40.77       0.00       3959         20          0          0      33015    2318081          0     228063     228063          0          0
Cutselectors       :   ExecTime  SetupTime      Calls  RootCalls   Selected     Forced   Filtered  RootSelec   RootForc   RootFilt 
  hybrid           :       2.52       0.00      19242         49     229323          0    2090530        211          0         35
Pricers            :   ExecTime  SetupTime      Calls       Vars
  problem variables:       0.00          -          0          0
Branching Rules    :   ExecTime  SetupTime   BranchLP  BranchExt   BranchPS    Cutoffs    DomReds       Cuts      Conss   Children
  allfullstrong    :       0.00       0.00          0          0          0          0          0          0          0          0
  cloud            :       0.00       0.00          0          0          0          0          0          0          0          0
  distribution     :       0.00       0.00          0          0          0          0          0          0          0          0
  fullstrong       :       0.00       0.00          0          0          0          0          0          0          0          0
  inference        :       0.00       0.00          0          0          0          0          0          0          0          0
  leastinf         :       0.00       0.00          0          0          0          0          0          0          0          0
  lookahead        :       0.00       0.00          0          0          0          0          0          0          0          0
  mostinf          :       0.00       0.00          0          0          0          0          0          0          0          0
  multaggr         :       0.00       0.00          0          0          0          0          0          0          0          0
  nodereopt        :       0.00       0.00          0          0          0          0          0          0          0          0
  pscost           :       0.00       0.00          0          0          0          0          0          0          0          0
  random           :       0.00       0.00          0          0          0          0          0          0          0          0
  relpscost        :      61.95       0.00      92181          0          0          0        915          0        768     183188
  vanillafullstrong:       0.00       0.00          0          0          0          0          0          0          0          0
Primal Heuristics  :   ExecTime  SetupTime      Calls      Found       Best
  LP solutions     :       0.00          -          -          1          1
  relax solutions  :       0.00          -          -          0          0
  pseudo solutions :       0.00          -          -          0          0
  strong branching :       0.03          -          -          0          0
  actconsdiving    :       0.00       0.00          0          0          0
  adaptivediving   :       4.08       0.00         34          0          0
  alns             :       1.49       0.00         16          1          1
  bound            :       0.00       0.00          0          0          0
  clique           :       0.01       0.00          1          0          0
  coefdiving       :       0.00       0.00          0          0          0
  completesol      :       0.00       0.00          0          0          0
  conflictdiving   :     192.08       0.00       1346          0          0
  crossover        :       0.67       0.00          2          1          1
  dins             :       0.00       0.00          0          0          0
  distributiondivin:      89.01       0.00        395          0          0
  dps              :       0.00       0.00          0          0          0
  dualval          :       0.00       0.00          0          0          0
  farkasdiving     :       0.01       0.00          0          0          0
  feaspump         :       0.19       0.00          1          1          1
  fixandinfer      :       0.00       0.00          0          0          0
  fracdiving       :      66.02       0.00        525          0          0
  gins             :       0.12       0.00          0          0          0
  guideddiving     :      71.85       0.00        556          5          5
  indicator        :       0.12       0.00          0          0          0
  indicatordiving  :       0.00       0.00          0          0          0
  intdiving        :       0.00       0.00          0          0          0
  intshifting      :       0.74       0.00        105          0          0
  linesearchdiving :      65.39       0.00        561          0          0
  localbranching   :       0.00       0.00          0          0          0
  locks            :       0.02       0.00          1          0          0
  lpface           :       0.05       0.00          0          0          0
  mpec             :     114.65       0.00         11          3          3
  multistart       :       0.00       0.00          0          0          0
  mutation         :       0.00       0.00          0          0          0
  nlpdiving        :      17.35       0.00          5          2          0
  objpscostdiving  :     135.19       0.00        153         77          0
  octane           :       0.00       0.00          0          0          0
  ofins            :       0.05       0.00          0          0          0
  oneopt           :       0.14       0.00         17          0          0
  padm             :       0.00       0.00          0          0          0
  proximity        :       0.00       0.00          0          0          0
  pscostdiving     :      65.37       0.00        444          1          1
  randrounding     :       1.02       0.00      15097          0          0
  rens             :       0.00       0.00          0          0          0
  reoptsols        :       0.00       0.00          0          0          0
  repair           :       0.00       0.00          0          0          0
  rins             :       5.25       0.00         20          0          0
  rootsoldiving    :      71.40       0.00         68          8          0
  rounding         :       1.79       0.00       4617          0          0
  shiftandpropagate:       0.00       0.00          0          0          0
  shifting         :      57.81       0.00      10308          2          2
  simplerounding   :       0.10       0.00          0          0          0
  subnlp           :     171.98       0.00          0          0          0
  trivial          :       0.00       0.00          2          2          2
  trivialnegation  :       0.00       0.00          0          0          0
  trustregion      :       0.00       0.00          0          0          0
  trysol           :       0.14       0.00          0          0          0
  twoopt           :       0.00       0.00          0          0          0
  undercover       :       1.72       0.00          1          1          1
  vbounds          :       0.00       0.00          0          0          0
  veclendiving     :      64.53       0.00        511          0          0
  zeroobj          :       0.00       0.00          0          0          0
  zirounding       :       0.42       0.00       1000          0          0
  other solutions  :          -          -          -          0          -
Diving (single)    :      Calls      Nodes   LP Iters Backtracks  Conflicts   MinDepth   MaxDepth   AvgDepth  RoundSols  NLeafSols  MinSolDpt  MaxSolDpt  AvgSolDpt
  actconsdiving    :          0          -          -          -          -          -          -          -          -          -          -          -          -
  coefdiving       :          0          -          -          -          -          -          -          -          -          -          -          -          -
  conflictdiving   :       1346      57440    1930491       1792      71137         52         86       63.3          0          -          -          -          -
  distributiondivin:        395      15471     656872        440       6213         51         74       58.8          0          -          -          -          -
  farkasdiving     :          0          -          -          -          -          -          -          -          -          -          -          -          -
  fracdiving       :        525      42894     651957        365       8195         55        301      102.4          0          -          -          -          -
  guideddiving     :        556      43047     707996        398      11043         55        203       98.6          0          5         90        125      110.4
  indicatordiving  :          0          -          -          -          -          -          -          -          -          -          -          -          -
  linesearchdiving :        561      21701     651844        515      28584         47         98       60.2          0          -          -          -          -
  pscostdiving     :        444      19796     669529        474       8138         54         85       65.2          0          1         85         85       85.0
  veclendiving     :        511      21808     652471        470      29949         53         84       62.2          0          -          -          -          -
Diving (adaptive)  :      Calls      Nodes   LP Iters Backtracks  Conflicts   MinDepth   MaxDepth   AvgDepth  RoundSols  NLeafSols  MinSolDpt  MaxSolDpt  AvgSolDpt
  actconsdiving    :          2         53       1698          2         20         58         58       58.0          0          -          -          -          -
  coefdiving       :         16        705      19050          9        822         56         77       63.2          0          -          -          -          -
  conflictdiving   :          0          -          -          -          -          -          -          -          -          -          -          -          -
  distributiondivin:          0          -          -          -          -          -          -          -          -          -          -          -          -
  farkasdiving     :          0          -          -          -          -          -          -          -          -          -          -          -          -
  fracdiving       :          2        133       2765          3         75         77         97       87.0          0          -          -          -          -
  guideddiving     :          2        149       2522          1         67         91         96       93.5          0          -          -          -          -
  indicatordiving  :          0          -          -          -          -          -          -          -          -          -          -          -          -
  linesearchdiving :          7        279       7237          6        308         56         89       63.6          0          -          -          -          -
  pscostdiving     :          1         47       1623          1          8         65         65       65.0          0          -          -          -          -
  veclendiving     :          4        164       4263          3        196         57         74       65.2          0          -          -          -          -
Neighborhoods      :      Calls  SetupTime  SolveTime SolveNodes       Sols       Best       Exp3  EpsGreedy        UCB TgtFixRate  Opt  Inf Node Stal  Sol  Usr Othr Actv
  rens             :          2       0.11       0.03          4          0          0    0.00000   -1.00000    0.54329      0.550    0    2    0    0    0    0    0    1
  rins             :          2       0.16       0.11         71          0          0    0.00000   -1.00000    0.46811      0.850    0    1    0    1    0    0    0    1
  mutation         :          2       0.10       0.09         54          0          0    0.00000   -1.00000    0.48203      0.550    0    2    0    0    0    0    0    1
  localbranching   :          1       0.03       0.02         15          0          0    0.00000   -1.00000    0.55233      0.700    0    1    0    0    0    0    0    1
  crossover        :          2       0.14       0.12         60          0          0    0.00000   -1.00000    0.44711      0.850    0    1    0    1    0    0    0    1
  proximity        :          1       0.02       0.02          9          0          0    0.00000   -1.00000    0.55833      0.700    0    1    0    0    0    0    0    1
  zeroobjective    :          5       0.22       0.15        190          1          1    0.00000   -1.00000    0.53660      0.879    1    1    0    3    0    0    0    1
  dins             :          1       0.02       0.02         15          0          0    0.00000   -1.00000    0.55233      0.700    0    1    0    0    0    0    0    1
  trustregion      :          0       0.00       0.00          0          0          0    0.00000   -1.00000    1.00000      0.900    0    0    0    0    0    0    0    0
Expressions        :   #IntEval  IntEvalTi   #RevProp  RevPropTi    DomReds    Cutoffs  #Estimate  EstimTime  Branching  #Simplify SimplifyTi Simplified
  pow              :          0       0.00          0       0.00          0          0          0       0.00          0          0       0.00          0
  prod             :       9900       0.00          0       0.00          0          0          0       0.00          0       6734       0.00          0
  sum              :          8       0.00          2       0.00          0          0          0       0.00          0          3       0.02          2
  var              :       6503       0.00          0       0.00          0          0          0       0.00          0      15568       0.00          0
  varidx           :          0       0.00          0       0.00          0          0          0       0.00          0          0       0.00          0
LP                 :       Time      Calls Iterations  Iter/call   Iter/sec  Time-0-It Calls-0-It    ItLimit
  primal LP        :     113.82      16068          0       0.00       0.00     113.72      16068
  dual LP          :    1809.69     146950   12767735      90.44    7055.21       2.89       5784
  lex dual LP      :       0.00          0          0       0.00          -
  barrier LP       :       0.00          0          0       0.00          -       0.00          0
  resolve instable :       0.00          0          0       0.00          -
  diving/probing LP:     701.30      29237    7071291     241.86   10083.12
  strong branching :      19.47       2126     188763      88.79    9695.07          -          -         22
    (at root node) :          -         19       3734     196.53          -
  conflict analysis:       8.79       5425      52790       9.73    6005.69
NLP relaxation     :
  solve time       :      15.86 (11 calls)
  convexity        :  nonconvex (40 linear rows, 0 convex ineq., 0 nonconvex ineq., 1784 nonlinear eq. or two-sided ineq.)
NLP Solvers        :  #Problems  ProblemTi    #Solves  SolveTime      #Iter  Time/Iter      #Okay #TimeLimit #IterLimit #LObjLimit #Interrupt  #NumError #EvalError  #OutOfMem #LicenseEr #OtherTerm   #GlobOpt    #LocOpt  #Feasible #LocInfeas #GlobInfea #Unbounded   #Unknown
  ipopt            :         12       7.28         45     228.21       1753       0.13         45          0          0          0          0          0          0          0          0          0          0         31          0         11          0          0          3
B&B Tree           :
  number of runs   :          1
  nodes            :     121364 (91594 internal, 29770 leaves)
  feasible leaves  :          1
  infeas. leaves   :         10
  objective leaves :      29758
  nodes (total)    :     121364 (91594 internal, 29770 leaves)
  nodes left       :      61304
  max depth        :         68
  max depth (total):         68
  backtracks       :      25767 (21.2%)
  early backtracks :          0 (0.0%)
  nodes exc. ref.  :          0 (0.0%)
  delayed cutoffs  :          5
  repropagations   :       7735 (274 domain reductions, 0 cutoffs)
  avg switch length:       6.76
  switching time   :     153.06
Estim. Tree Size   :     243770
Estimation Tree    : 183189 nodes (121885 visited, 91594 internal, 30291 leaves, 61304 open), weight: 0.0000 completed 0.1259
Estimations        :      estim      value      trend resolution     smooth
  wbe              : 966054841746307          -          -          -          -
  tree-profile     :         -1          -          -          -          -
  gap              :    1719769    0.67359    0.00001         32    1701887
  tree-weight      :     243770    0.00000    0.00000         32     243645
  leaf-frequency   :     547822    0.24852    0.00003         32     545366
  ssg              :   12376842    0.80117   -0.00000         32   12605649
  open-nodes       :     243770 61304.00000    5.80433         32     243645
Root Node          :
  First LP value   : -1.00000000000000e+00
  First LP Iters   :       1667 (10418.75 Iter/sec)
  First LP Time    :       0.16
  Final Dual Bound : -9.53434343434344e-01
  Final Root Iters :       2594
  Root LP Estimate : -3.22434550371777e-01
Solution           :
  Solutions found  :        105 (18 improvements)
  First Solution   : +1.00000000000000e+05   (in run 1, after 0 nodes, 0.00 seconds, depth 0, found by <trivial>)
  Gap First Sol.   :   infinite
  Gap Last Sol.    :      53.06 %
  Primal Bound     : -5.57171717171715e-01   (in run 1, after 57766 nodes, 1422.16 seconds, depth 90, found by <guideddiving>)
  Dual Bound       : -8.27169320650362e-01
  Gap              :      48.46 %
Integrals          :      Total       Avg%
  primal-dual      :  127493.15      35.41
  primal-ref       :          -          - (not evaluated)
  dual-ref         :          -          - (not evaluated)
